37284269785666535195011,9,1,2,08,12,1,2,012,8,1,2,02,2,1,2,09,5,1,2,06,15,1,2,02,15,1,2,013,6,1,2,010,3,1,2,011,3,1,2,08,4,1,2,08,13,1,2,04,2,1,2,02,7,1,2,07,5,1,2,03,8,1,2,01,3,1,2,015,8,1,2,07,5,1,2,08,11,1,2,01,10,1,2,02,4,1,2,04,4,1,2,015,6,1,2,05,1,1,2,08,7,1,2,03,5,1,2,07,11,1,2,06,3,1,2,014,8,1,2,015,2,1,2,01,15,1,2,06,13,1,2,04,8,1,2,03,1,1,2,06,13,1,2,012,15,1,2,013,4,1,2,014,12,1,2,08,15,1,2,07,9,1,2,04,4,1,2,07,2,1,2,02,14,1,2,04,8,1,2,05,11,1,2,08,9,1,2,08,12,1,2,015,13,1,2,08,10,1,2,0